(set-info :smt-lib-version 2.6)
(set-logic QF_UFLRA)
(set-info :source |
MathSat group

|)
(set-info :category "random")
(set-info :status sat)
(declare-fun x0 () Real)
(declare-fun x1 () Real)
(declare-fun x2 () Real)
(declare-fun x3 () Real)
(declare-fun x4 () Real)
(declare-fun x5 () Real)
(declare-fun x6 () Real)
(declare-fun x7 () Real)
(declare-fun x8 () Real)
(declare-fun x9 () Real)
(declare-fun x10 () Real)
(declare-fun x11 () Real)
(declare-fun x12 () Real)
(declare-fun x13 () Real)
(declare-fun x14 () Real)
(declare-fun x15 () Real)
(declare-fun x16 () Real)
(declare-fun x17 () Real)
(declare-fun x18 () Real)
(declare-fun x19 () Real)
(declare-fun x20 () Real)
(declare-fun x21 () Real)
(declare-fun x22 () Real)
(declare-fun x23 () Real)
(declare-fun x24 () Real)
(declare-fun x25 () Real)
(declare-fun x26 () Real)
(declare-fun x27 () Real)
(declare-fun x28 () Real)
(declare-fun x29 () Real)
(declare-fun x30 () Real)
(declare-fun x31 () Real)
(declare-fun x32 () Real)
(declare-fun x33 () Real)
(declare-fun x34 () Real)
(declare-fun x35 () Real)
(declare-fun x36 () Real)
(declare-fun x37 () Real)
(declare-fun x38 () Real)
(declare-fun x39 () Real)
(declare-fun f0_1 (Real) Real)
(declare-fun f0_2 (Real Real) Real)
(declare-fun f0_3 (Real Real Real) Real)
(declare-fun f0_4 (Real Real Real Real) Real)
(declare-fun P0 () Bool)
(declare-fun P1 () Bool)
(declare-fun P2 () Bool)
(declare-fun P3 () Bool)
(declare-fun P4 () Bool)
(declare-fun P5 () Bool)
(declare-fun P6 () Bool)
(declare-fun P7 () Bool)
(declare-fun P8 () Bool)
(declare-fun P9 () Bool)
(declare-fun P10 () Bool)
(declare-fun P11 () Bool)
(declare-fun P12 () Bool)
(declare-fun P13 () Bool)
(declare-fun P14 () Bool)
(declare-fun P15 () Bool)
(declare-fun P16 () Bool)
(declare-fun P17 () Bool)
(declare-fun P18 () Bool)
(declare-fun P19 () Bool)
(declare-fun P20 () Bool)
(declare-fun P21 () Bool)
(declare-fun P22 () Bool)
(declare-fun P23 () Bool)
(declare-fun P24 () Bool)
(declare-fun P25 () Bool)
(declare-fun P26 () Bool)
(declare-fun P27 () Bool)
(declare-fun P28 () Bool)
(declare-fun P29 () Bool)
(declare-fun P30 () Bool)
(declare-fun P31 () Bool)
(declare-fun P32 () Bool)
(declare-fun P33 () Bool)
(declare-fun P34 () Bool)
(declare-fun P35 () Bool)
(declare-fun P36 () Bool)
(declare-fun P37 () Bool)
(declare-fun P38 () Bool)
(declare-fun P39 () Bool)
(assert (let ((?v_40 (distinct (- (+ (* 56 x35) (* 8 x18)) (* 12 x31)) 52)) (?v_71 (< (- (- (* 50 x0) (* 38 x4)) (* 21 x21)) 22)) (?v_23 (* 26 x35)) (?v_106 (= (+ (- (* 50 x31) (* 6 x9)) (* 32 x38)) 34)) (?v_60 (distinct (- (+ (* 50 x29) (* 3 x13)) (* 26 x33)) 22)) (?v_59 (<= (- (- (* 56 x6) (* 38 x27)) (* 19 x34)) 13)) (?v_98 (= (f0_1 x11) x3)) (?v_52 (= (f0_2 x35 x35) (f0_2 x29 x24))) (?v_121 (distinct x8 (f0_2 x33 x10))) (?v_66 (distinct (f0_2 x35 x2) (f0_2 x25 x10))) (?v_79 (= x34 (f0_2 x32 x25))) (?v_147 (= x12 (f0_2 x31 x23))) (?v_179 (distinct x5 x16)) (?v_162 (distinct x34 (f0_1 x16))) (?v_24 (= x20 (f0_2 x27 x15))) (?v_110 (distinct x0 x22)) (?v_47 (f0_1 x25))) (let ((?v_56 (= ?v_47 (f0_2 x27 x9))) (?v_157 (= (f0_2 x24 x32) x17)) (?v_166 (distinct (f0_2 x19 x29) (f0_2 x7 x9))) (?v_11 (f0_1 x20))) (let ((?v_45 (= (f0_1 x28) ?v_11)) (?v_171 (f0_1 x38))) (let ((?v_87 (distinct ?v_171 (f0_2 x29 x11))) (?v_28 (f0_1 x17))) (let ((?v_8 (distinct ?v_11 ?v_28)) (?v_125 (= (f0_1 x3) x19)) (?v_159 (distinct (f0_2 x30 x5) (f0_2 x28 x38))) (?v_160 (distinct x22 (f0_1 x35))) (?v_10 (= (f0_1 x2) (f0_2 x2 x32))) (?v_27 (distinct x37 x38)) (?v_172 (distinct x39 (f0_2 x16 x31))) (?v_144 (= ?v_28 (f0_1 x27))) (?v_14 (distinct x31 x16)) (?v_128 (= (f0_2 x11 x16) x6)) (?v_113 (= x1 (f0_1 x34))) (?v_75 (distinct (f0_2 x10 x16) (f0_1 x31))) (?v_169 (distinct (f0_2 x26 x6) (f0_1 x36))) (?v_78 (distinct x5 (f0_2 x13 x16))) (?v_161 (distinct (f0_2 x1 x16) x26)) (?v_105 (distinct (f0_2 x29 x17) x23)) (?v_0 (= x27 (f0_1 x29))) (?v_187 (distinct x37 ?v_171)) (?v_101 (distinct ?v_47 (f0_2 x3 x9))) (?v_186 (= (f0_1 x18) (f0_2 x27 x29))) (?v_142 (distinct (f0_1 x19) (f0_1 x5))) (?v_140 (= (f0_2 x7 x29) x34)) (?v_76 (= (f0_1 x23) x25)) (?v_154 (= (f0_2 x28 x35) x17)) (?v_61 (= (f0_2 x7 x35) (f0_2 x10 x27))) (?v_26 (or P34 P22))) (let ((?v_54 (not ?v_0)) (?v_129 (not P6)) (?v_164 (not P17)) (?v_178 (not ?v_10)) (?v_1 (not P35)) (?v_137 (not P28)) (?v_38 (not ?v_59)) (?v_104 (not P4)) (?v_43 (not ?v_186)) (?v_94 (not P26)) (?v_17 (not P16)) (?v_18 (not P8)) (?v_13 (not ?v_142)) (?v_50 (not ?v_125)) (?v_12 (not ?v_161)) (?v_42 (not P11)) (?v_185 (not P33)) (?v_16 (not ?v_45)) (?v_91 (not P22)) (?v_25 (not P30)) (?v_20 (not ?v_169)) (?v_19 (not ?v_8)) (?v_116 (not ?v_121)) (?v_107 (not P18)) (?v_97 (not P29)) (?v_183 (or P11 P26)) (?v_55 (not ?v_98)) (?v_175 (not P7)) (?v_31 (not ?v_24)) (?v_44 (not ?v_27)) (?v_29 (not ?v_144)) (?v_81 (not P25)) (?v_190 (not P0)) (?v_46 (not P2)) (?v_77 (not ?v_160)) (?v_115 (not ?v_76)) (?v_49 (not ?v_147)) (?v_163 (not P24)) (?v_89 (not P37)) (?v_102 (not ?v_56)) (?v_119 (not P14)) (?v_82 (not ?v_40)) (?v_96 (not ?v_172)) (?v_141 (not P20)) (?v_85 (not P9)) (?v_152 (not ?v_166)) (?v_93 (not P3)) (?v_58 (not ?v_52)) (?v_86 (not ?v_61)) (?v_65 (not ?v_162)) (?v_173 (not ?v_66)) (?v_72 (not ?v_128)) (?v_118 (not ?v_71)) (?v_180 (not P15)) (?v_95 (not ?v_105)) (?v_182 (not ?v_75)) (?v_193 (not ?v_78)) (?v_127 (not P10)) (?v_130 (not P27)) (?v_148 (not P12)) (?v_131 (not P19)) (?v_123 (not ?v_101)) (?v_120 (not P36)) (?v_202 (not P21)) (?v_117 (not P34)) (?v_176 (not ?v_110)) (?v_177 (not P32)) (?v_155 (not P1)) (?v_150 (not ?v_60)) (?v_191 (not P13)) (?v_126 (not ?v_140)) (?v_134 (not P38)) (?v_156 (not ?v_113)) (?v_205 (not ?v_14)) (?v_184 (not ?v_154)) (?v_158 (not ?v_157)) (?v_199 (not P39)) (?v_197 (not P31)) (?v_196 (not ?v_159)) (?v_204 (not P23)) (?v_168 (not ?v_106)) (?v_194 (not ?v_79)) (?v_174 (not ?v_187))) (let ((?v_200 (or ?v_182 ?v_14)) (?v_201 (not P5)) (?v_208 (not ?v_179)) (?v_53 (< (+ (* 26 x34) (* 40 x5) (* 37 x15)) 24))) (let ((?v_6 (not ?v_53)) (?v_206 (< (+ x18 (* 14 x37) (* 16 x21)) 16))) (let ((?v_92 (not ?v_206)) (?v_64 (<= (+ (* 18 x29) (* 56 x32) (* 16 x16)) 26))) (let ((?v_136 (not ?v_64)) (?v_195 (< (+ (* 57 x10) (* 57 x34) (* 52 x17)) 23))) (let ((?v_188 (not ?v_195)) (?v_207 (or ?v_152 ?v_136)) (?v_2 (<= (- (+ (* 15 x32) (* 56 x37)) (* 22 x3)) (- 58)))) (let ((?v_22 (not ?v_2)) (?v_108 (<= (- (- (* (- 39) x35) (* 25 x3)) (* 24 x30)) (- 26))) (?v_37 (* (- 38) x36))) (let ((?v_90 (<= (- (- ?v_37 (* 44 x32)) (* 51 x39)) (- 19)))) (let ((?v_68 (not ?v_90)) (?v_88 (<= (+ (* (- 41) x27) (* 36 x9) (* 40 x1)) 44))) (let ((?v_203 (not ?v_88)) (?v_30 (< (+ (- (* (- 5) x30) (* 42 x3)) (* 22 x6)) 9))) (let ((?v_7 (not ?v_30)) (?v_170 (< (+ (- (* (- 14) x23) (* 19 x1)) (* 23 x38)) 43))) (let ((?v_133 (not ?v_170)) (?v_3 (<= (+ (* (- 43) x35) (* 18 x20) (* 13 x31)) (- 33))) (?v_15 (= (+ (* (- 8) x1) (* 30 x11) (* 54 x25)) (- 17)))) (let ((?v_70 (not ?v_15)) (?v_33 (<= (+ (- (* 11 x38) 0) (* 20 x17)) (- 13)))) (let ((?v_114 (not ?v_33)) (?v_135 (<= (+ (* (- 11) x13) (* 40 x18) (* 36 x19)) 9))) (let ((?v_4 (not ?v_135)) (?v_122 (<= (- (- (* (- 22) x27) (* 24 x13)) (* 31 x9)) (- 38))) (?v_100 (<= (- (+ (* 44 x3) (* 12 x25)) x24) (- 2)))) (let ((?v_36 (not ?v_100)) (?v_5 (distinct (+ (* 14 x9) (* 12 x16) (* 5 x33)) (- 42)))) (let ((?v_99 (not ?v_5)) (?v_21 (distinct (+ (- (* (- 26) x32) ?v_23) (* 2 x25)) 29))) (let ((?v_35 (not ?v_21)) (?v_167 (< (+ (* 19 x16) (* 51 x3) (* 54 x15)) (- 2))) (?v_109 (< (+ (- (* 13 x27) (* 54 x31)) (* 51 x19)) (- 56)))) (let ((?v_153 (not ?v_109)) (?v_73 (or ?v_7 ?v_13)) (?v_9 (<= (- (- (* (- 36) x29) (* 5 x22)) (* 31 x14)) 22)) (?v_32 (distinct (+ (- (* (- 1) x20) (* 2 x4)) (* 20 x3)) 7))) (let ((?v_80 (not ?v_9)) (?v_111 (< (- (- (* (- 48) x27) (* 44 x35)) (* 39 x16)) 30))) (let ((?v_34 (not ?v_111)) (?v_62 (= (- (- (* (- 9) x39) (* 55 x15)) (* 36 x4)) 48)) (?v_69 (<= (+ (- (* 24 x10) (* 12 x14)) ?v_23) (- 37)))) (let ((?v_63 (not ?v_69)) (?v_39 (< (+ (* (- 47) x8) (* 23 x9) (* 35 x27)) 7)) (?v_57 (< (+ (- (* (- 26) x8) (* 28 x34)) (* 52 x20)) (- 33)))) (let ((?v_41 (not ?v_57)) (?v_84 (distinct (- (+ (* (- 1) x23) (* 29 x14)) 0) (- 10))) (?v_165 (not ?v_32)) (?v_48 (<= (+ (- ?v_37 (* 46 x32)) (* 41 x7)) 46))) (let ((?v_51 (not ?v_48)) (?v_112 (not ?v_39)) (?v_67 (< (+ (- (* (- 18) x3) (* 10 x20)) (* 49 x9)) 24))) (let ((?v_103 (not ?v_67)) (?v_74 (distinct (- (+ (* (- 9) x6) (* 24 x3)) (* 42 x6)) 48)) (?v_139 (<= (+ (- (* (- 1) x4) (* 45 x25)) (* 30 x21)) 26)) (?v_83 (or ?v_32 ?v_14)) (?v_132 (<= (+ (- (* 46 x15) (* 39 x32)) (* 33 x34)) (- 13)))) (let ((?v_124 (not ?v_132)) (?v_149 (not ?v_62)) (?v_189 (= (+ (* (- 17) x4) (* 7 x3) (* 32 x14)) 28))) (let ((?v_143 (not ?v_189)) (?v_151 (not ?v_74)) (?v_146 (not ?v_84)) (?v_138 (<= (- (* (- 44) x39) (* 15 x20)) (- 9)))) (let ((?v_145 (not ?v_138)) (?v_192 (not ?v_139)) (?v_181 (not ?v_167)) (?v_198 (not ?v_108))) (and (and (and (and (and (and (and (and (and (and (and (and (and (and (and (and (and (and (and (and (and (and (and (and (and (and (and (and (and (and (and (and (and (and (and (and (and (and (and (and (and (and (and (and (and (and (and (and (and (and (and (and (and (and (and (and (and (and (and (and (and (and (and (and (and (and (and (and (and (and (and (and (and (and (and (and (and (and (and (and (and (and (and (and (and (and (and (and (and (and (and (and (and (and (and (and (and (and (and (and (and (and (and (and (and (and (and (and (and (and (and (and (and (and (and (and (and (and (and (and (and (and (and (and (and (and (and (and (and (and (and (and (and (and (and (and (and (and (and (and (and (and (and (and (and (and (and (and (and (and (and (and (and (and (and (and (and (and (and (and (and (and (and (and (and (and (and (and (and (and (and (and (and (and (and (and (and (and (and (and (and (and (and (and (and (and (and (and (and (and (and (and (and (and (and (and (and (and (and (and (and (and (and (and (and (and (and (and (and (and (and (and (and (and (and (and (and (and (and (and (and (and (and (and (and (and (and (and (and (and (and (and (and (and (and (and (and (and (and (and (and (and (and (and (and (and (and (and (and (and (and (and (and (and (and (and (and (and (and (and (and (and (and (and (and (and (and (and (and (and (and (and (and (and (and (and (and (and (and (and (and (and (and (and (and (and (and (and (and (and (and (and (and (and (and (and (and (and (and (and (and (and (and (and (and (and (and (and (and (and (and (and (and (and (and (and (and (and (and (and (and (and (and (and (and (and (and (and (and (and (and (and (and (and (and (and (and (and (and (and (and (and (and (and (and (and (and (and (and (and (and (and (and (and (and (and (and (and (and (and (and (and (and (and (and (and (and (and (and (and (and (and (and (and (and (and (and (and (and (and (and (and (and (and (and (and (and (and (and (and (and (and (and (and (and (and (and (and (and (and (and (and (and (and (and (and (and (and (and (and (and (and (and (and (and (and (and (and (and (and (and (and (and (and (and (and (and (and (and (and (and (and (and (and (and (and (and (and (and (and (and (and (and (and (and (and (and (and (and (and (and (and (and (and (and (and (and (and (and (and (and (and (and (and (and (and (and (and (and (and (and (and (and (and (and (and (and (and (and (or ?v_26 P8) (or (or ?v_78 ?v_22) ?v_108)) (or (or ?v_68 ?v_8) ?v_203)) (or (or ?v_7 ?v_54) ?v_129)) (or (or P35 ?v_40) ?v_164)) (or (or ?v_14 P35) ?v_133)) (or (or ?v_178 ?v_110) ?v_3)) (or (or ?v_1 P2) P1)) (or (or ?v_0 ?v_70) ?v_114)) (or (or ?v_87 ?v_27) ?v_4)) (or (or ?v_137 ?v_1) ?v_122)) (or (or ?v_2 ?v_38) ?v_104)) (or (or ?v_43 ?v_36) P13)) (or (or ?v_3 ?v_94) ?v_99)) (or (or ?v_4 ?v_35) ?v_17)) (or (or ?v_18 P17) ?v_5)) (or (or ?v_6 ?v_6) P3)) (or (or ?v_167 ?v_153) P19)) (or ?v_73 ?v_50)) (or (or ?v_8 P33) ?v_12)) (or (or P2 ?v_42) ?v_3)) (or (or ?v_24 ?v_66) P3)) (or (or P22 ?v_9) P5)) (or (or ?v_92 ?v_185) ?v_32)) (or (or P31 ?v_80) ?v_10)) (or (or ?v_16 ?v_34) ?v_12)) (or (or ?v_91 ?v_25) P11)) (or (or ?v_157 ?v_1) ?v_106)) (or (or P1 P7) ?v_13)) (or (or ?v_14 ?v_113) ?v_15)) (or (or ?v_62 ?v_20) ?v_16)) (or (or ?v_17 ?v_14) ?v_19)) (or (or ?v_18 ?v_116) ?v_13)) (or (or ?v_107 ?v_97) P38)) (or ?v_183 ?v_55)) (or (or ?v_19 ?v_20) ?v_175)) (or (or ?v_21 ?v_22) ?v_63)) (or (or ?v_31 ?v_25) ?v_39)) (or ?v_26 ?v_44)) (or (or ?v_29 ?v_29) ?v_41)) (or (or ?v_84 ?v_30) ?v_31)) (or (or P12 ?v_61) ?v_13)) (or (or ?v_3 ?v_81) ?v_190)) (or (or P8 ?v_79) ?v_165)) (or (or P17 ?v_46) ?v_33)) (or (or ?v_7 ?v_34) ?v_77)) (or (or ?v_115 ?v_49) ?v_163)) (or (or ?v_89 ?v_35) P12)) (or (or ?v_36 P1) ?v_48)) (or (or ?v_75 P23) ?v_102)) (or (or P17 ?v_119) ?v_38)) (or (or ?v_39 P25) ?v_82)) (or (or ?v_41 ?v_42) P28)) (or (or ?v_38 ?v_43) ?v_96)) (or (or ?v_71 P12) ?v_141)) (or (or ?v_44 P10) ?v_85)) (or (or ?v_152 ?v_45) ?v_46)) (or (or ?v_101 ?v_15) ?v_51)) (or (or ?v_52 ?v_49) ?v_60)) (or (or ?v_50 ?v_51) ?v_93)) (or (or ?v_58 ?v_53) ?v_112)) (or (or ?v_54 ?v_54) P11)) (or (or P37 ?v_55) ?v_56)) (or (or ?v_57 ?v_58) ?v_59)) (or (or ?v_60 ?v_86) ?v_50)) (or (or ?v_62 ?v_64) ?v_39)) (or (or ?v_103 P34) ?v_15)) (or (or ?v_74 ?v_65) P3)) (or (or ?v_63 ?v_57) ?v_136)) (or (or ?v_139 ?v_65) ?v_173)) (or ?v_83 ?v_49)) (or (or ?v_67 P20) P36)) (or (or ?v_34 ?v_72) P7)) (or (or ?v_56 ?v_48) ?v_59)) (or (or ?v_68 ?v_69) ?v_70)) (or (or ?v_118 ?v_72) ?v_180)) (or ?v_73 ?v_27)) (or (or P37 ?v_95) ?v_74)) (or (or ?v_182 ?v_41) ?v_76)) (or (or ?v_77 ?v_193) ?v_75)) (or (or ?v_127 ?v_124) ?v_17)) (or (or P20 ?v_69) ?v_79)) (or (or ?v_80 ?v_9) ?v_81)) (or (or ?v_53 ?v_76) P14)) (or (or ?v_82 ?v_130) ?v_44)) (or ?v_83 ?v_58)) (or (or ?v_84 ?v_42) ?v_3)) (or (or ?v_148 ?v_85) ?v_86)) (or (or ?v_59 P5) ?v_87)) (or (or ?v_88 ?v_89) P1)) (or (or P14 ?v_149) P27)) (or (or P39 ?v_90) ?v_91)) (or (or P18 ?v_61) ?v_79)) (or (or ?v_34 ?v_50) P32)) (or (or ?v_27 ?v_74) ?v_56)) (or (or ?v_72 ?v_92) ?v_74)) (or (or ?v_93 ?v_74) ?v_94)) (or (or ?v_49 P25) ?v_44)) (or (or ?v_41 ?v_131) ?v_95)) (or (or ?v_96 P39) ?v_97)) (or (or ?v_21 ?v_98) P35)) (or (or ?v_53 ?v_62) ?v_99)) (or (or ?v_33 ?v_100) P17)) (or (or ?v_123 ?v_102) P3)) (or (or ?v_103 ?v_7) ?v_143)) (or (or ?v_104 ?v_42) ?v_105)) (or (or ?v_25 ?v_120) ?v_67)) (or (or ?v_58 ?v_98) ?v_106)) (or (or ?v_51 P27) ?v_101)) (or (or ?v_154 ?v_27) ?v_56)) (or (or ?v_107 P13) ?v_39)) (or (or ?v_34 ?v_100) ?v_53)) (or (or ?v_202 ?v_51) ?v_117)) (or (or ?v_60 ?v_108) ?v_48)) (or (or P3 ?v_70) ?v_109)) (or (or P37 ?v_176) P7)) (or (or ?v_31 ?v_111) P12)) (or (or ?v_10 ?v_84) P25)) (or (or ?v_14 ?v_80) ?v_112)) (or (or P21 ?v_84) P13)) (or (or ?v_27 ?v_188) ?v_113)) (or (or ?v_72 ?v_27) ?v_177)) (or (or ?v_114 ?v_115) ?v_155)) (or (or ?v_116 ?v_117) ?v_92)) (or (or ?v_118 P7) ?v_51)) (or (or ?v_3 ?v_89) ?v_106)) (or (or ?v_119 ?v_120) ?v_151)) (or (or ?v_150 ?v_1) ?v_191)) (or (or ?v_60 P5) P25)) (or (or ?v_126 P22) ?v_115)) (or (or ?v_8 ?v_36) P12)) (or (or P35 ?v_146) ?v_121)) (or (or ?v_108 P3) ?v_122)) (or (or ?v_134 ?v_123) ?v_102)) (or (or ?v_156 P6) P25)) (or (or P5 ?v_113) ?v_205)) (or (or P13 P19) P9)) (or (or ?v_36 ?v_104) ?v_30)) (or (or ?v_145 ?v_124) ?v_125)) (or (or P37 ?v_90) ?v_126)) (or (or ?v_76 ?v_127) ?v_128)) (or (or ?v_129 ?v_67) ?v_121)) (or (or ?v_130 P5) ?v_24)) (or (or P36 P36) ?v_74)) (or (or P37 ?v_30) ?v_131)) (or (or ?v_39 ?v_123) P5)) (or (or ?v_132 ?v_133) ?v_65)) (or (or P31 ?v_44) ?v_95)) (or (or ?v_2 ?v_76) P10)) (or (or ?v_134 ?v_135) P19)) (or (or ?v_108 ?v_136) P3)) (or (or ?v_137 ?v_4) P1)) (or (or ?v_138 ?v_139) P18)) (or (or P36 ?v_140) ?v_40)) (or (or ?v_96 ?v_55) ?v_129)) (or (or ?v_110 ?v_141) ?v_142)) (or (or ?v_32 ?v_138) ?v_143)) (or (or ?v_139 ?v_76) ?v_144)) (or (or ?v_13 P32) ?v_192)) (or (or ?v_78 ?v_140) P20)) (or (or ?v_125 ?v_51) ?v_141)) (or (or ?v_145 ?v_52) ?v_61)) (or (or ?v_146 ?v_25) ?v_140)) (or (or ?v_147 ?v_125) ?v_84)) (or (or ?v_148 ?v_149) ?v_150)) (or (or ?v_30 ?v_66) ?v_110)) (or (or ?v_64 ?v_96) ?v_58)) (or (or ?v_36 ?v_151) ?v_89)) (or (or ?v_95 ?v_38) P14)) (or (or ?v_59 ?v_152) ?v_29)) (or (or ?v_8 ?v_153) P22)) (or (or ?v_184 ?v_140) ?v_112)) (or (or ?v_2 ?v_159) ?v_43)) (or (or P3 ?v_121) ?v_155)) (or (or ?v_78 ?v_21) ?v_156)) (or (or ?v_111 ?v_129) ?v_158)) (or (or ?v_67 ?v_96) ?v_24)) (or (or ?v_41 ?v_158) ?v_6)) (or (or ?v_149 ?v_199) ?v_50)) (or (or ?v_84 ?v_10) ?v_98)) (or (or ?v_122 P15) ?v_153)) (or (or ?v_197 P39) ?v_157)) (or (or P32 ?v_154) ?v_61)) (or (or ?v_196 ?v_41) ?v_124)) (or (or ?v_86 ?v_77) ?v_36)) (or (or ?v_119 P37) ?v_160)) (or (or ?v_78 ?v_70) ?v_161)) (or (or ?v_152 ?v_99) ?v_82)) (or (or ?v_64 ?v_7) ?v_36)) (or (or P35 ?v_49) P37)) (or (or P8 P13) ?v_79)) (or (or ?v_128 ?v_30) ?v_120)) (or (or ?v_38 P28) P36)) (or (or ?v_162 ?v_79) ?v_163)) (or (or ?v_133 ?v_138) ?v_58)) (or (or ?v_120 ?v_13) ?v_204)) (or (or ?v_115 ?v_147) ?v_108)) (or (or ?v_105 ?v_45) ?v_164)) (or (or ?v_6 P25) P22)) (or (or ?v_17 P21) ?v_81)) (or (or ?v_109 ?v_152) ?v_121)) (or (or P11 ?v_2) ?v_39)) (or (or ?v_49 ?v_165) ?v_41)) (or (or ?v_6 ?v_66) ?v_19)) (or (or ?v_115 ?v_29) P30)) (or (or ?v_86 ?v_109) ?v_68)) (or (or ?v_122 ?v_135) P34)) (or (or ?v_88 ?v_30) ?v_166)) (or (or ?v_34 ?v_168) ?v_117)) (or (or P1 ?v_194) ?v_167)) (or (or P33 ?v_168) ?v_169)) (or (or P31 ?v_25) P12)) (or (or ?v_88 ?v_49) ?v_71)) (or (or ?v_170 ?v_5) P20)) (or (or ?v_68 P14) ?v_135)) (or (or ?v_126 ?v_104) ?v_181)) (or (or ?v_155 ?v_44) ?v_25)) (or (or ?v_161 ?v_6) P35)) (or (or ?v_198 ?v_174) ?v_179)) (or (or ?v_102 ?v_127) ?v_32)) (or (or ?v_43 ?v_22) P30)) (or (or ?v_13 ?v_57) P4)) (or (or ?v_157 P15) ?v_172)) (or (or ?v_173 ?v_89) ?v_130)) (or (or ?v_36 ?v_100) ?v_174)) (or (or ?v_120 ?v_175) ?v_176)) (or (or P15 ?v_77) ?v_148)) (or (or ?v_45 ?v_156) P16)) (or (or ?v_177 ?v_128) ?v_16)) (or (or P7 ?v_68) ?v_88)) (or (or ?v_30 P3) ?v_104)) (or (or ?v_170 ?v_163) ?v_149)) (or (or ?v_141 P20) ?v_178)) (or (or ?v_69 ?v_34) ?v_100)) (or (or ?v_57 ?v_88) ?v_48)) (or (or ?v_10 ?v_157) ?v_78)) (or (or ?v_54 ?v_75) ?v_39)) (or (or ?v_164 P31) ?v_87)) (or (or ?v_70 P14) P17)) (or (or ?v_62 ?v_100) ?v_60)) (or (or P16 ?v_8) ?v_21)) (or (or ?v_92 ?v_100) ?v_85)) (or (or ?v_24 ?v_54) ?v_179)) (or (or ?v_7 ?v_50) ?v_39)) (or (or ?v_157 ?v_180) ?v_165)) (or (or P32 ?v_50) ?v_165)) (or (or ?v_181 P1) ?v_70)) (or (or P18 P15) ?v_29)) (or (or ?v_156 P27) ?v_1)) (or (or P26 ?v_88) ?v_97)) (or (or P6 P9) ?v_182)) (or (or P21 ?v_95) ?v_58)) (or (or ?v_138 ?v_69) ?v_139)) (or (or ?v_178 ?v_21) ?v_69)) (or (or ?v_59 P30) ?v_34)) (or (or ?v_141 P39) ?v_100)) (or (or ?v_142 ?v_91) ?v_114)) (or (or ?v_144 ?v_181) P15)) (or (or ?v_14 P31) P3)) (or (or ?v_15 ?v_60) ?v_138)) (or (or ?v_8 P26) ?v_39)) (or (or ?v_154 ?v_59) ?v_158)) (or (or ?v_110 ?v_36) ?v_134)) (or (or ?v_20 P20) P15)) (or ?v_183 ?v_116)) (or (or ?v_50 ?v_15) ?v_78)) (or (or ?v_117 ?v_51) ?v_13)) (or (or ?v_85 ?v_2) ?v_168)) (or (or ?v_141 P19) ?v_15)) (or (or ?v_116 ?v_115) ?v_57)) (or (or ?v_76 ?v_177) ?v_169)) (or (or ?v_112 ?v_50) ?v_65)) (or (or ?v_40 P12) ?v_166)) (or (or P37 ?v_8) ?v_29)) (or (or ?v_61 P9) ?v_184)) (or (or ?v_31 ?v_176) ?v_67)) (or (or ?v_114 ?v_178) P35)) (or (or ?v_182 ?v_117) P19)) (or (or ?v_129 ?v_123) ?v_182)) (or (or ?v_174 ?v_185) ?v_186)) (or (or ?v_146 ?v_48) ?v_101)) (or (or P10 ?v_187) ?v_54)) (or (or ?v_156 ?v_3) ?v_109)) (or (or P4 ?v_155) ?v_138)) (or (or P10 ?v_61) P37)) (or (or ?v_14 ?v_179) ?v_173)) (or (or ?v_173 ?v_128) ?v_126)) (or (or ?v_160 ?v_70) ?v_13)) (or (or ?v_36 ?v_149) P30)) (or (or ?v_187 ?v_20) ?v_141)) (or (or P23 ?v_176) ?v_91)) (or (or ?v_188 ?v_150) ?v_133)) (or (or ?v_125 ?v_48) ?v_57)) (or (or ?v_178 P11) ?v_127)) (or (or ?v_87 ?v_166) ?v_177)) (or (or ?v_59 ?v_24) ?v_189)) (or (or ?v_172 ?v_97) ?v_55)) (or (or ?v_190 ?v_191) ?v_118)) (or (or ?v_58 ?v_185) P30)) (or (or ?v_80 ?v_162) P21)) (or (or ?v_12 P36) ?v_136)) (or (or ?v_175 ?v_69) ?v_24)) (or (or ?v_192 ?v_118) ?v_22)) (or (or ?v_193 ?v_193) ?v_48)) (or (or ?v_161 ?v_36) ?v_76)) (or (or ?v_187 P15) ?v_184)) (or (or ?v_71 ?v_70) ?v_5)) (or (or P35 ?v_34) ?v_120)) (or (or P16 ?v_99) ?v_176)) (or (or ?v_162 ?v_29) ?v_140)) (or (or ?v_163 ?v_188) ?v_194)) (or (or ?v_195 ?v_77) ?v_153)) (or (or ?v_63 P3) ?v_14)) (or (or P26 ?v_146) ?v_93)) (or (or ?v_151 ?v_89) ?v_120)) (or (or ?v_95 ?v_59) ?v_19)) (or (or ?v_166 ?v_24) ?v_111)) (or ?v_200 ?v_15)) (or (or ?v_123 ?v_192) ?v_149)) (or (or ?v_160 ?v_164) ?v_2)) (or (or ?v_93 ?v_188) ?v_125)) (or (or ?v_84 ?v_182) ?v_196)) (or (or ?v_9 ?v_36) ?v_197)) (or (or ?v_25 ?v_198) ?v_143)) (or (or P7 ?v_86) ?v_138)) (or (or ?v_40 ?v_191) ?v_154)) (or (or ?v_113 ?v_139) ?v_87)) (or (or ?v_109 ?v_185) ?v_112)) (or (or ?v_125 ?v_35) ?v_8)) (or (or ?v_45 ?v_82) ?v_53)) (or (or ?v_4 ?v_45) P32)) (or (or ?v_74 ?v_174) ?v_182)) (or (or ?v_103 ?v_2) ?v_167)) (or (or ?v_8 P36) ?v_100)) (or (or ?v_29 ?v_105) ?v_182)) (or (or P14 ?v_90) ?v_97)) (or (or ?v_17 ?v_168) ?v_102)) (or (or ?v_136 ?v_185) (not ?v_122))) (or (or ?v_150 ?v_68) ?v_162)) (or (or P22 ?v_74) P26)) (or (or ?v_38 ?v_31) ?v_8)) (or (or P20 ?v_104) ?v_13)) (or (or P38 ?v_10) ?v_106)) (or (or P15 ?v_62) ?v_128)) (or (or ?v_197 P20) ?v_185)) (or (or ?v_180 ?v_36) ?v_201)) (or (or ?v_188 P1) ?v_46)) (or (or ?v_174 ?v_199) ?v_70)) (or (or ?v_46 ?v_21) P28)) (or (or ?v_196 ?v_39) ?v_129)) (or (or (not ?v_87) ?v_158) ?v_27)) (or (or ?v_62 ?v_167) ?v_124)) (or (or ?v_186 ?v_170) ?v_152)) (or (or ?v_120 P10) ?v_9)) (or (or ?v_149 ?v_157) ?v_139)) (or (or ?v_189 ?v_184) ?v_163)) (or (or ?v_58 ?v_74) ?v_128)) (or (or ?v_100 ?v_58) ?v_35)) (or (or P9 ?v_138) P26)) (or ?v_200 ?v_106)) (or (or P32 ?v_170) ?v_130)) (or (or ?v_179 P1) ?v_0)) (or (or P27 P28) ?v_152)) (or (or P1 P29) ?v_201)) (or (or ?v_137 ?v_20) ?v_51)) (or (or P0 ?v_129) ?v_185)) (or (or ?v_41 P16) ?v_139)) (or (or ?v_182 P11) P39)) (or (or ?v_74 ?v_105) ?v_113)) (or (or ?v_177 P9) P16)) (or (or ?v_19 ?v_115) ?v_150)) (or (or ?v_164 P32) ?v_176)) (or (or ?v_72 P36) ?v_121)) (or (or ?v_36 P33) ?v_184)) (or (or ?v_115 ?v_43) ?v_72)) (or (or ?v_158 ?v_57) ?v_80)) (or (or ?v_142 P39) ?v_192)) (or (or ?v_173 ?v_17) ?v_182)) (or (or ?v_151 ?v_184) ?v_190)) (or (or P35 ?v_77) ?v_177)) (or (or ?v_167 P24) ?v_150)) (or (or ?v_39 ?v_51) ?v_154)) (or (or ?v_39 ?v_97) ?v_168)) (or (or ?v_98 ?v_132) ?v_13)) (or (or ?v_109 ?v_21) ?v_132)) (or (or ?v_142 ?v_74) ?v_137)) (or (or P26 ?v_50) P5)) (or (or ?v_196 ?v_19) ?v_137)) (or (or ?v_134 P37) ?v_24)) (or (or ?v_176 ?v_17) ?v_164)) (or (or ?v_157 ?v_141) ?v_53)) (or (or P8 ?v_91) ?v_34)) (or (or P36 ?v_89) ?v_113)) (or (or ?v_164 P12) ?v_102)) (or (or P18 ?v_13) P3)) (or (or ?v_33 ?v_167) ?v_50)) (or (or P32 ?v_191) ?v_202)) (or (or ?v_46 ?v_163) ?v_4)) (or (or ?v_42 ?v_85) ?v_118)) (or (or ?v_99 ?v_168) P36)) (or (or ?v_107 ?v_94) ?v_99)) (or (or ?v_74 ?v_182) ?v_170)) (or (or ?v_91 P12) ?v_191)) (or (or ?v_65 ?v_147) ?v_172)) (or (or ?v_153 ?v_64) P8)) (or (or ?v_150 ?v_186) ?v_34)) (or (or ?v_24 ?v_159) ?v_88)) (or (or ?v_49 ?v_176) ?v_139)) (or (or ?v_52 ?v_58) ?v_113)) (or (or P37 P15) ?v_80)) (or ?v_207 ?v_110)) (or (or ?v_84 ?v_191) P37)) (or (or ?v_44 ?v_143) ?v_140)) (or (or ?v_10 ?v_67) ?v_198)) (or (or P1 ?v_81) ?v_177)) (or (or ?v_193 P23) P15)) (or (or ?v_50 ?v_119) ?v_172)) (or (or ?v_18 ?v_192) ?v_94)) (or (or P32 ?v_63) ?v_77)) (or (or P33 ?v_114) ?v_203)) (or (or ?v_195 ?v_204) ?v_5)) (or (or ?v_205 ?v_116) ?v_94)) (or (or ?v_36 ?v_27) P33)) (or (or ?v_127 ?v_185) ?v_7)) (or (or ?v_42 ?v_137) ?v_3)) (or (or ?v_163 ?v_74) ?v_156)) (or (or ?v_95 ?v_206) ?v_193)) (or (or ?v_195 ?v_53) ?v_58)) (or (or ?v_197 ?v_1) ?v_129)) (or (or ?v_2 P31) P8)) (or (or ?v_101 ?v_98) ?v_88)) (or (or P18 ?v_139) ?v_31)) (or (or ?v_191 ?v_148) ?v_187)) (or (or ?v_185 P15) P29)) (or (or ?v_187 ?v_27) ?v_208)) (or (or P36 ?v_104) ?v_118)) (or (or ?v_61 ?v_149) ?v_91)) (or (or ?v_111 P5) ?v_191)) (or (or P19 P20) ?v_75)) (or (or ?v_82 ?v_181) ?v_140)) (or ?v_207 ?v_105)) (or (or ?v_77 ?v_204) ?v_116)) (or (or ?v_117 P24) ?v_86)) (or (or P27 ?v_179) ?v_135)) (or (or ?v_204 ?v_184) ?v_122)) (or (or P5 ?v_60) P17)) (or (or P7 ?v_196) P31)) (or (or ?v_112 ?v_103) ?v_165)) (or (or ?v_55 P2) ?v_64)) (or (or ?v_172 ?v_93) ?v_90)) (or (or P18 ?v_45) ?v_21)) (or (or ?v_121 ?v_81) ?v_175)) (or (or ?v_144 ?v_27) P2)) (or (or ?v_78 ?v_163) ?v_104)) (or (or ?v_75 ?v_172) P11)) (or (or ?v_116 ?v_22) P21)) (or (or ?v_4 ?v_152) ?v_146)) (or (or ?v_44 ?v_0) ?v_113)) (or (or ?v_168 P36) ?v_79)) (or (or ?v_84 ?v_195) ?v_119)) (or (or ?v_20 ?v_144) ?v_155)) (or (or ?v_17 ?v_119) ?v_54)) (or (or ?v_4 ?v_53) ?v_177)) (or (or ?v_132 ?v_134) ?v_128)) (or (or ?v_67 ?v_130) ?v_157)) (or (or ?v_147 ?v_119) ?v_198)) (or (or ?v_2 ?v_208) ?v_10)) (or (or ?v_149 ?v_198) ?v_140)) (or (or ?v_34 ?v_114) ?v_190)) (or (or ?v_146 ?v_194) ?v_154)) (or (or ?v_135 ?v_186) ?v_160)) (or (or ?v_91 ?v_71) ?v_114)) (or (or ?v_149 ?v_50) ?v_53)) (or (or ?v_175 ?v_204) ?v_62)) (or (or P17 ?v_186) ?v_1)) (or (or ?v_144 P32) P22)) (or (or P33 ?v_21) P0)) (or (or ?v_204 ?v_49) ?v_38)) (or (or P37 ?v_68) ?v_55)) (or (or ?v_175 ?v_150) ?v_89))))))))))))))))))))))))))))))))))))
(check-sat)
(exit)
